p cnf 36 249
1 4 7 10 13 16 19 22 25 28 31 34 0
2 5 8 11 14 17 20 23 26 29 32 35 0
3 6 9 12 15 18 21 24 27 30 33 36 0
-1 -2 0
-1 -3 0
-2 -3 0
-4 -5 0
-4 -6 0
-5 -6 0
-7 -8 0
-7 -9 0
-8 -9 0
-10 -11 0
-10 -12 0
-11 -12 0
-13 -14 0
-13 -15 0
-14 -15 0
-16 -17 0
-16 -18 0
-17 -18 0
-19 -20 0
-19 -21 0
-20 -21 0
-22 -23 0
-22 -24 0
-23 -24 0
-25 -26 0
-25 -27 0
-26 -27 0
-28 -29 0
-28 -30 0
-29 -30 0
-31 -32 0
-31 -33 0
-32 -33 0
-34 -35 0
-34 -36 0
-35 -36 0
-1 -8 0
-1 -9 0
-2 -7 0
-2 -9 0
-3 -7 0
-3 -8 0
-1 -11 0
-1 -12 0
-2 -10 0
-2 -12 0
-3 -10 0
-3 -11 0
-1 -14 0
-1 -15 0
-2 -13 0
-2 -15 0
-3 -13 0
-3 -14 0
-1 -20 0
-1 -21 0
-2 -19 0
-2 -21 0
-3 -19 0
-3 -20 0
-1 -23 0
-1 -24 0
-2 -22 0
-2 -24 0
-3 -22 0
-3 -23 0
-1 -26 0
-1 -27 0
-2 -25 0
-2 -27 0
-3 -25 0
-3 -26 0
-1 -29 0
-1 -30 0
-2 -28 0
-2 -30 0
-3 -28 0
-3 -29 0
-1 -32 0
-1 -33 0
-2 -31 0
-2 -33 0
-3 -31 0
-3 -32 0
-4 -8 0
-4 -9 0
-5 -7 0
-5 -9 0
-6 -7 0
-6 -8 0
-4 -14 0
-4 -15 0
-5 -13 0
-5 -15 0
-6 -13 0
-6 -14 0
-4 -20 0
-4 -21 0
-5 -19 0
-5 -21 0
-6 -19 0
-6 -20 0
-4 -23 0
-4 -24 0
-5 -22 0
-5 -24 0
-6 -22 0
-6 -23 0
-4 -35 0
-4 -36 0
-5 -34 0
-5 -36 0
-6 -34 0
-6 -35 0
-7 -14 0
-7 -15 0
-8 -13 0
-8 -15 0
-9 -13 0
-9 -14 0
-7 -17 0
-7 -18 0
-8 -16 0
-8 -18 0
-9 -16 0
-9 -17 0
-7 -20 0
-7 -21 0
-8 -19 0
-8 -21 0
-9 -19 0
-9 -20 0
-7 -23 0
-7 -24 0
-8 -22 0
-8 -24 0
-9 -22 0
-9 -23 0
-7 -26 0
-7 -27 0
-8 -25 0
-8 -27 0
-9 -25 0
-9 -26 0
-7 -29 0
-7 -30 0
-8 -28 0
-8 -30 0
-9 -28 0
-9 -29 0
-7 -32 0
-7 -33 0
-8 -31 0
-8 -33 0
-9 -31 0
-9 -32 0
-10 -14 0
-10 -15 0
-11 -13 0
-11 -15 0
-12 -13 0
-12 -14 0
-10 -17 0
-10 -18 0
-11 -16 0
-11 -18 0
-12 -16 0
-12 -17 0
-10 -23 0
-10 -24 0
-11 -22 0
-11 -24 0
-12 -22 0
-12 -23 0
-10 -29 0
-10 -30 0
-11 -28 0
-11 -30 0
-12 -28 0
-12 -29 0
-13 -23 0
-13 -24 0
-14 -22 0
-14 -24 0
-15 -22 0
-15 -23 0
-13 -32 0
-13 -33 0
-14 -31 0
-14 -33 0
-15 -31 0
-15 -32 0
-13 -35 0
-13 -36 0
-14 -34 0
-14 -36 0
-15 -34 0
-15 -35 0
-16 -20 0
-16 -21 0
-17 -19 0
-17 -21 0
-18 -19 0
-18 -20 0
-16 -29 0
-16 -30 0
-17 -28 0
-17 -30 0
-18 -28 0
-18 -29 0
-19 -26 0
-19 -27 0
-20 -25 0
-20 -27 0
-21 -25 0
-21 -26 0
-19 -35 0
-19 -36 0
-20 -34 0
-20 -36 0
-21 -34 0
-21 -35 0
-22 -26 0
-22 -27 0
-23 -25 0
-23 -27 0
-24 -25 0
-24 -26 0
-22 -29 0
-22 -30 0
-23 -28 0
-23 -30 0
-24 -28 0
-24 -29 0
-25 -29 0
-25 -30 0
-26 -28 0
-26 -30 0
-27 -28 0
-27 -29 0
-25 -35 0
-25 -36 0
-26 -34 0
-26 -36 0
-27 -34 0
-27 -35 0
